50	100	100	100
12	3	16
47	32	30
1	17	11
21	21	43
29	28	7
22	26	4
36	35	35
17	7	1
45	19	41
49	16	6
15	15	46
16	42	45
9	4	11
44	48	12
22	25	37
39	39	25
43	48	1
18	36	49
45	37	25
33	36	31
5	32	22
49	1	17
26	43	5
48	30	44
19	48	48
46	20	35
5	39	23
25	11	7
23	43	10
35	19	34
39	6	40
35	45	17
40	41	46
14	29	6
2	6	5
31	9	28
9	8	13
14	18	28
14	9	37
49	3	45
1	41	35
7	6	12
34	6	21
49	2	15
40	42	10
37	23	27
36	12	45
48	4	34
41	43	16
1	14	40
